solution status: time limit reached
objective value:                         165304.29369
y#1                                                 1 	(obj:5700)
y#3                                                 1 	(obj:5700)
y#4                                                 1 	(obj:5700)
y#6                                                 1 	(obj:5700)
y#7                                                 1 	(obj:5700)
y#8                                                 1 	(obj:5700)
y#9                                                 1 	(obj:5700)
y#10                                                1 	(obj:5700)
y#11                                                1 	(obj:5700)
y#12                                                1 	(obj:5700)
y#13                                                1 	(obj:5700)
y#14                                                1 	(obj:5700)
y#18                                                1 	(obj:5700)
y#19                                                1 	(obj:5700)
y#20                                                1 	(obj:5700)
y#21                                                1 	(obj:5700)
y#23                                                1 	(obj:5700)
y#26                                                1 	(obj:5700)
y#27                                                1 	(obj:5700)
y#28                                                1 	(obj:5700)
y#29                                                1 	(obj:5700)
y#30                                                1 	(obj:5700)
y#34                                                1 	(obj:5700)
y#36                                                1 	(obj:5700)
y#41                                                1 	(obj:5700)
y#43                                                1 	(obj:5700)
y#44                                                1 	(obj:5700)
y#47                                                1 	(obj:5700)
y#48                                                1 	(obj:5700)
x#1#12                                              1 	(obj:0.02754)
x#2#14                                              1 	(obj:0.0102)
x#3#41                                              1 	(obj:0.03196)
x#4#14                                              1 	(obj:0.01904)
x#5#4                                               1 	(obj:0.02193)
x#6#18                                              1 	(obj:0.0204)
x#7#3                                               1 	(obj:0.00748)
x#8#34                                              1 	(obj:0.01411)
x#9#47                                              1 	(obj:0.01445)
x#10#1                                              1 	(obj:0.00612)
x#11#48                                             1 	(obj:0.01292)
x#12#14                                             1 	(obj:0.01428)
x#13#27                                             1 	(obj:0.0136)
x#14#4                                              1 	(obj:0.01326)
x#15#19                                             1 	(obj:0.00765)
x#16#12                                             1 	(obj:0.00867)
x#17#18                                             1 	(obj:0.0051)
x#18#10                                             1 	(obj:0.01904)
x#19#7                                              1 	(obj:0.01258)
x#20#34                                             1 	(obj:0.01309)
x#21#21                                             1 	(obj:0.0102)
x#22#14                                             1 	(obj:0.01955)
x#23#13                                             1 	(obj:0.0119)
x#24#11                                             1 	(obj:0.01139)
x#25#10                                             1 	(obj:0.02057)
x#26#28                                             1 	(obj:0.00476)
x#27#14                                             1 	(obj:0.01394)
x#28#3                                              1 	(obj:0.01054)
x#29#12                                             1 	(obj:0.02125)
x#30#8                                              1 	(obj:0.01649)
x#31#7                                              1 	(obj:0.01683)
x#32#19                                             1 	(obj:0.0221)
x#33#3                                              1 	(obj:0.0204)
x#34#7                                              1 	(obj:0.00816)
x#35#43                                             1 	(obj:0.01122)
x#36#27                                             1 	(obj:0.01258)
x#37#9                                              1 	(obj:0.01275)
x#38#18                                             1 	(obj:0.02737)
x#39#27                                             1 	(obj:0.01071)
x#40#11                                             1 	(obj:0.01037)
x#41#29                                             1 	(obj:0.00425)
x#42#12                                             1 	(obj:0.01921)
x#43#3                                              1 	(obj:0.01666)
x#44#27                                             1 	(obj:0.01292)
x#45#19                                             1 	(obj:0.00884)
x#46#30                                             1 	(obj:0.01768)
x#47#11                                             1 	(obj:0.01734)
x#48#36                                             1 	(obj:0.01309)
x#49#10                                             1 	(obj:0.01853)
x#50#43                                             1 	(obj:0.01377)
x#51#21                                             1 	(obj:0.02329)
x#52#41                                             1 	(obj:0.02329)
x#53#4                                              1 	(obj:0.02125)
x#54#14                                             1 	(obj:0.00646)
x#55#9                                              1 	(obj:0.0051)
x#56#48                                             1 	(obj:0.01938)
x#57#9                                              1 	(obj:0.02091)
x#58#8                                              1 	(obj:0.01445)
x#59#6                                              1 	(obj:0.01411)
x#60#12                                             1 	(obj:0.02142)
x#61#8                                              1 	(obj:0.00476)
x#62#10                                             1 	(obj:0.01853)
x#63#11                                             1 	(obj:0.01632)
x#64#41                                             1 	(obj:0.02057)
x#65#1                                              1 	(obj:0.0221)
x#66#30                                             1 	(obj:0.01768)
x#67#44                                             1 	(obj:0.02397)
x#68#9                                              1 	(obj:0.01904)
x#69#18                             0.999999999999998 	(obj:0.02312)
x#70#26                                             1 	(obj:0.01904)
x#71#48                                             1 	(obj:0.00986)
x#72#3                                              1 	(obj:0.01479)
x#73#28                                             1 	(obj:0.0119)
x#74#11                                             1 	(obj:0.00578)
x#75#43                                             1 	(obj:0.00901)
x#76#7                                              1 	(obj:0.00986)
x#77#43                                             1 	(obj:0.01309)
x#78#47                                             1 	(obj:0.01173)
x#79#13                                             1 	(obj:0.01853)
x#80#30                                             1 	(obj:0.01326)
x#81#28                                             1 	(obj:0.01003)
x#82#21                                             1 	(obj:0.02057)
x#83#18                                             1 	(obj:0.02856)
x#84#11                                             1 	(obj:0.00629)
x#85#19                                             1 	(obj:0.02176)
x#86#26                                             1 	(obj:0.01632)
x#87#6                                              1 	(obj:0.00493)
x#88#29                                             1 	(obj:0.02006)
x#89#47                                             1 	(obj:0.01445)
x#90#11                                             1 	(obj:0.01462)
x#91#28                                             1 	(obj:0.00595)
x#92#41                                             1 	(obj:0.03179)
x#93#36                                             1 	(obj:0.00952)
x#94#29                                             1 	(obj:0.00884)
x#95#11                                             1 	(obj:0.00408)
x#96#36                                             1 	(obj:0.01292)
x#97#44                                             1 	(obj:0.00374)
x#98#20                                             1 	(obj:0.0136)
x#99#4                                              1 	(obj:0.01394)
x#100#19                                            1 	(obj:0.01139)
x#101#18                                            1 	(obj:0.01292)
x#102#36                                            1 	(obj:0.01683)
x#103#27                                            1 	(obj:0.03043)
x#104#21                                            1 	(obj:0.0204)
x#105#3                                             1 	(obj:0.00289)
x#106#12                                            1 	(obj:0.00476)
x#107#19                                            1 	(obj:0.01088)
x#108#28                                            1 	(obj:0.01751)
x#109#19                                            1 	(obj:0.00374)
x#110#30                                            1 	(obj:0.01853)
x#111#27                                            1 	(obj:0.03026)
x#112#13                                            1 	(obj:0.00629)
x#113#21                                            1 	(obj:0.01666)
x#114#30                                            1 	(obj:0.01649)
x#115#9                                             1 	(obj:0.01071)
x#116#48                                            1 	(obj:0.01649)
x#117#43                                            1 	(obj:0.00476)
x#118#7                                             1 	(obj:0.00969)
x#119#18                                            1 	(obj:0.01241)
x#120#26                                            1 	(obj:0.0119)
x#121#26                                            1 	(obj:0.02686)
x#122#41                                            1 	(obj:0.01428)
x#123#20                                            1 	(obj:0.00731)
x#124#44                                            1 	(obj:0.01615)
x#125#4                                             1 	(obj:0.00374)
x#126#28                                            1 	(obj:0.01275)
x#127#34                                            1 	(obj:0.01207)
x#128#47                                            1 	(obj:0.01853)
x#129#12                                            1 	(obj:0.02193)
x#130#34                                            1 	(obj:0.01547)
x#131#13                                            1 	(obj:0.0034)
x#132#29                                            1 	(obj:0.01309)
x#133#9                                             1 	(obj:0.01241)
x#134#44                                            1 	(obj:0.01258)
x#135#13                                            1 	(obj:0.0068)
x#136#11                                            1 	(obj:0.01887)
x#137#44                                            1 	(obj:0.02125)
x#138#19                                            1 	(obj:0.01751)
x#139#3                                             1 	(obj:0.00918)
x#140#26                                            1 	(obj:0.00969)
x#141#21                                            1 	(obj:0.00816)
x#142#34                                            1 	(obj:0.02499)
x#143#28                                            1 	(obj:0.0119)
x#144#21                                            1 	(obj:0.00527)
x#145#36                                            1 	(obj:0.01853)
x#146#41                                            1 	(obj:0.01734)
x#147#6                                             1 	(obj:0.02244)
x#148#12                                            1 	(obj:0.01734)
x#149#27                                            1 	(obj:0.0051)
x#150#34                                            1 	(obj:0.01241)
x#151#44                                            1 	(obj:0.00544)
x#152#1                                             1 	(obj:0.00153)
x#153#18                                            1 	(obj:0.02312)
x#154#41                                            1 	(obj:0.01785)
x#155#1                                             1 	(obj:0.01326)
x#156#27                                            1 	(obj:0.01768)
x#157#47                                            1 	(obj:0.0051)
x#158#47                                            1 	(obj:0.0085)
x#159#26                                            1 	(obj:0.00697)
x#160#28                                            1 	(obj:0.01462)
x#161#14                                            1 	(obj:0.01003)
x#162#18                                            1 	(obj:0.01938)
x#163#28                                            1 	(obj:0.00663)
x#164#29                                            1 	(obj:0.01615)
x#165#14                                            1 	(obj:0.01309)
x#166#14                                            1 	(obj:0.00612)
x#167#1                                             1 	(obj:0.02499)
x#168#48                                            1 	(obj:0.02261)
x#169#27                                            1 	(obj:0.00153)
x#170#14                                            1 	(obj:0.00748)
x#171#41                                            1 	(obj:0.00221)
x#172#4                                             1 	(obj:0.02023)
x#173#26                                            1 	(obj:0.01479)
x#174#34                                            1 	(obj:0.01292)
x#175#47                                            1 	(obj:0.00323)
x#176#10                                            1 	(obj:0.02482)
x#177#10                                            1 	(obj:0.02601)
x#178#1                                             1 	(obj:0.01717)
x#179#10                                            1 	(obj:0.00493)
x#180#48                                            1 	(obj:0.02312)
x#181#43                                            1 	(obj:0.00136)
x#182#36                                            1 	(obj:0.01428)
x#183#30                                            1 	(obj:0.01343)
x#184#10                                            1 	(obj:0.00306)
x#185#19                                            1 	(obj:0.00714)
x#186#47                                            1 	(obj:0.00476)
x#187#12                                            1 	(obj:0.01513)
x#188#6                                             1 	(obj:0.00459)
x#189#34                                            1 	(obj:0.01683)
x#190#13                                            1 	(obj:0.01598)
x#191#34                                            1 	(obj:0.01802)
x#192#48                                            1 	(obj:0.01343)
x#193#9                                             1 	(obj:0.01904)
x#194#21                                            1 	(obj:0.0272)
x#195#6                                             1 	(obj:0.00765)
x#196#23                                            1 	(obj:0.02244)
x#197#41                                            1 	(obj:0.02567)
x#198#44                                            1 	(obj:0.00476)
x#199#9                                             1 	(obj:0.00884)
x#200#23                                            1 	(obj:0.00697)
x#201#23                                            1 	(obj:0.01768)
x#202#12                                            1 	(obj:0.02346)
x#203#23                                            1 	(obj:0.00238)
x#204#43                                            1 	(obj:0.01683)
x#205#43                                            1 	(obj:0.02771)
x#206#7                                             1 	(obj:0.01717)
x#207#36                                            1 	(obj:0.01139)
x#208#7                                             1 	(obj:0.00527)
x#209#19                                            1 	(obj:0.01445)
x#210#3                                             1 	(obj:0.01173)
x#211#3                                             1 	(obj:0.00782)
x#212#4                                             1 	(obj:0.01819)
x#213#13                                            1 	(obj:0.00527)
x#214#1                                             1 	(obj:0.01326)
x#215#41                                            1 	(obj:0.02414)
x#216#21                                            1 	(obj:0.01377)
x#217#28                                            1 	(obj:0.01428)
x#218#47                                            1 	(obj:0.0034)
x#219#13                                            1 	(obj:0.02533)
x#220#47                                            1 	(obj:0.01615)
x#221#13                                            1 	(obj:0.00612)
x#222#4                                             1 	(obj:0.02312)
x#223#23                                            1 	(obj:0.01156)
x#224#43                                            1 	(obj:0.02074)
x#225#23                                            1 	(obj:0.02567)
x#226#11                                            1 	(obj:0.01819)
x#227#30                                            1 	(obj:0.02074)
x#228#9                                             1 	(obj:0.02448)
x#229#26                                            1 	(obj:0.00068)
x#230#19                                            1 	(obj:0.00068)
x#231#26                                            1 	(obj:0.01343)
x#232#4                                             1 	(obj:0.02278)
x#233#41                                            1 	(obj:0.03196)
x#234#9                                             1 	(obj:0.00561)
x#235#12                                            1 	(obj:0.00935)
x#236#29                                            1 	(obj:0.00425)
x#237#23                                            1 	(obj:0.02516)
x#238#21                                            1 	(obj:0.03264)
x#239#7                                             1 	(obj:0.00969)
x#240#30                                            1 	(obj:0.01054)
x#241#7                                             1 	(obj:0.00272)
x#242#27                                            1 	(obj:0.00238)
x#243#9                                             1 	(obj:0.01445)
x#244#18                                            1 	(obj:0.0017)
x#245#6                                             1 	(obj:0.01377)
x#246#12                                            1 	(obj:0.00884)
x#247#44                                            1 	(obj:0.0187)
x#248#30                                            1 	(obj:0.02499)
x#249#3                                             1 	(obj:0.00714)
x#250#13                                            1 	(obj:0.01904)
x#251#44                                            1 	(obj:0.01734)
x#252#10                                            1 	(obj:0.00578)
x#253#44                                            1 	(obj:0.01836)
x#254#43                                            1 	(obj:0.01071)
x#255#6                                             1 	(obj:0.02635)
x#256#29                                            1 	(obj:0.01785)
x#257#43                                            1 	(obj:0.0153)
x#258#27                                            1 	(obj:0.01292)
x#259#7                                             1 	(obj:0.00782)
x#260#4                                             1 	(obj:0.02975)
x#261#7                                             1 	(obj:0.01037)
x#262#20                                            1 	(obj:0.03009)
x#263#34                                            1 	(obj:0.01343)
x#264#21                                            1 	(obj:0.01224)
x#265#43                                            1 	(obj:0.0119)
x#266#26                                            1 	(obj:0.00935)
x#267#13                                            1 	(obj:0.01207)
x#268#36                                            1 	(obj:0.02703)
x#269#36                                            1 	(obj:0.02125)
x#270#3                                             1 	(obj:0.01479)
x#271#28                                            1 	(obj:0.01309)
x#272#4                                             1 	(obj:0.02414)
x#273#36                                            1 	(obj:0.00306)
x#274#23                                            1 	(obj:0.00935)
x#275#8                                             1 	(obj:0.01989)
x#276#23                                            1 	(obj:0.01462)
x#277#44                                            1 	(obj:0.00629)
x#278#47                                            1 	(obj:0.0136)
x#279#6                                             1 	(obj:0.02278)
x#280#14                                            1 	(obj:0.00663)
x#281#10                                            1 	(obj:0.00646)
x#282#29                                            1 	(obj:0.01564)
x#283#34                                            1 	(obj:0.01071)
x#284#3                                             1 	(obj:0.02567)
x#285#14                                            1 	(obj:0.01581)
x#286#11                                            1 	(obj:0.02057)
x#287#44                                            1 	(obj:0.01377)
x#288#7                                             1 	(obj:0.00833)
x#289#20                                            1 	(obj:0.01139)
x#290#8                                             1 	(obj:0.00323)
x#291#9                                             1 	(obj:0.01955)
x#292#23                                            1 	(obj:0.01989)
x#293#36                                            1 	(obj:0.03638)
x#294#29                                            1 	(obj:0.0306)
x#295#1                                             1 	(obj:0.00765)
x#296#10                                            1 	(obj:0.00731)
x#297#18                                            1 	(obj:0.00884)
x#298#20                                            1 	(obj:0.00765)
x#299#6                                             1 	(obj:0.01785)
x#300#11                                            1 	(obj:0.0187)
